*************************************************************

   NEOS Server Version 6.0
   Job#     : 16178818
   Password : sNFfgqmG
   User     : 
   Solver   : lp:HiGHS:AMPL
   Start    : 2025-06-08 05:18:22
   End      : 2025-06-08 05:18:35
   Host     : prod-sub-1.neos-server.org

   Disclaimer:

   This information is provided without any express or
   implied warranty. In particular, there is no warranty
   of any kind concerning the fitness of this
   information for any particular purpose.

   Announcements:
*************************************************************
You are using the solver highsampl.
Checking ampl.mod for highsampl_options...
Checking ampl.com for highsampl_options...
Executing AMPL.
processing data.
processing commands.
Executing on prod-exec-7.neos-server.org

Presolve eliminates 103 constraints and 13 variables.
"option presolve 10;" used, but "option presolve 2;" would suffice.
Adjusted problem:
143 variables:
	30 binary variables
	113 linear variables
65 constraints, all linear; 270 nonzeros
	47 equality constraints
	18 inequality constraints
1 linear objective; 71 nonzeros.

HiGHS 1.7.0:   tech:outlev = 1
Running HiGHS 1.7.0 (git hash: 50670fd): Copyright (c) 2024 HiGHS under MIT licence terms
Coefficient ranges:
  Matrix [1e-02, 4e+02]
  Cost   [5e-01, 1e+01]
  Bound  [1e+00, 1e+03]
  RHS    [1e+00, 2e+03]
Presolving model
65 rows, 142 cols, 269 nonzeros  0s
54 rows, 121 cols, 247 nonzeros  0s
43 rows, 102 cols, 187 nonzeros  0s

Solving MIP model with:
   43 rows
   102 cols (12 binary, 0 integer, 0 implied int., 90 continuous)
   187 nonzeros

        Nodes      |    B&B Tree     |            Objective Bounds              |  Dynamic Constraints |       Work      
     Proc. InQueue |  Leaves   Expl. | BestBound       BestSol              Gap |   Cuts   InLp Confl. | LpIters     Time

         0       0         0   0.00%   116505          -inf                 inf        0      0      0         0     0.0s
 R       0       0         0   0.00%   116455          92205             26.30%        0      0      0        36     0.0s
 L       0       0         0   0.00%   108855          108855             0.00%      199     23      0        84     0.1s

Solving report
  Status            Optimal
  Primal bound      108855
  Dual bound        108855
  Gap               0% (tolerance: 0.01%)
  Solution status   feasible
                    108855 (objective)
                    0 (bound viol.)
                    1.49587944371e-16 (int. viol.)
                    0 (row viol.)
  Timing            0.05 (total)
                    0.00 (presolve)
                    0.00 (postsolve)
  Nodes             1
  LP iterations     93 (total)
                    0 (strong br.)
                    48 (separation)
                    9 (heuristics)
HiGHS 1.7.0: optimal solution; objective 108855
93 simplex iterations
1 branching nodes
Total_Profit = 108855

d[j,m] [*,*]
:             Borer    Grinding HorizontalDrill Planer VerticalDrill    :=
January    1.49588e-16     0            1          0          0
February   0               0            0          0          0
March      0               0            0          0          0
April      1               1            0          1          1
May        0               1            0          0          0
June       0               0            0          0          0
;

:              x[p,m] y[p,m] s[p,m]    :=
January  PROD1    500    500     0
January  PROD2   1000   1000     0
January  PROD3    300    300     0
January  PROD4    300    300     0
January  PROD5    800    800     0
January  PROD6    200    200     0
January  PROD7    100    100     0
February PROD1    600    600     0
February PROD2    500    500     0
February PROD3    200    200     0
February PROD4      0      0     0
February PROD5    400    400     0
February PROD6    300    300     0
February PROD7    150    150     0
March    PROD1    400    300   100
March    PROD2    700    600   100
March    PROD3    100      0   100
March    PROD4    100      0   100
March    PROD5    600    500   100
March    PROD6    400    400     0
March    PROD7    200    100   100
April    PROD1      0    100     0
April    PROD2      0    100     0
April    PROD3      0    100     0
April    PROD4      0    100     0
April    PROD5      0    100     0
April    PROD6      0      0     0
April    PROD7      0    100     0
May      PROD1      0      0     0
May      PROD2    100    100     0
May      PROD3    500    500     0
May      PROD4    100    100     0
May      PROD5   1000   1000     0
May      PROD6    300    300     0
May      PROD7      0      0     0
June     PROD1    550    500    50
June     PROD2    550    500    50
June     PROD3    150    100    50
June     PROD4    350    300    50
June     PROD5   1150   1100    50
June     PROD6    550    500    50
June     PROD7    110     60    50
;

NEOS Server Home
